(declare-const f_0_2 Real)
(declare-const M Real)
(declare-const f_2_1 Real)
(declare-const t_1_0_0 Real)
(declare-const f_1_1 Real)
(declare-const t_1_0_1 Real)
(declare-const f_0_1 Real)
(declare-const f_1_2 Real)
(declare-const f_1_0 Real)
(declare-const f_2_0 Real)
(declare-const t_1_0_2 Real)
(declare-const f_0_0 Real)
(declare-const f_2_2 Real)
(assert (>= M 0))
(assert (forall ((x Real) (i Real)) (=> (and (and (<= i 1) (>= i 1)) (> x 0)) (>= (+ f_0_0 (* f_0_1 x) (* f_0_2 i)) 0))))
(assert (forall ((x Real) (i Real)) (=> (and (>= i 1) (<= i x) (> x 0) (>= (+ 2 (* 3 x)) (* 2 i))) (and (>= (+ f_1_0 (* f_1_1 x) (* f_1_2 i)) 0) (>= (+ f_0_0 (* -1 f_1_0) (* f_0_1 x) (* f_0_2 i) (* -1 f_1_1 x) (* -1 f_1_2 i)) 1)))))
(assert (forall ((x Real) (i Real)) (=> (and (>= i 1) (> x 0) (> i x) (>= (+ 2 (* 3 x)) (* 2 i))) (and (>= (+ f_2_0 (* f_2_1 x) (* f_2_2 i)) 0) (>= (+ f_0_0 (* -1 f_2_0) (* f_0_1 x) (* f_0_2 i) (* -1 f_2_1 x) (* -1 f_2_2 i)) 1)))))
(assert (forall ((x Real) (i Real)) (=> (and (>= i 1) (>= x i) (>= 1 0)) (and (>= (+ t_1_0_0 (* t_1_0_1 x) (* t_1_0_2 i)) 0.500000000000000) (<= (+ t_1_0_0 (* t_1_0_1 x) (* t_1_0_2 i)) 1.50000000000000) (>= (+ f_0_0 (* f_0_1 x) (* f_0_2 (+ t_1_0_0 (* t_1_0_1 x) (* t_1_0_2 i) i))) 0) (>= (+ f_1_0 (* -1 f_0_0) (* f_1_1 x) (* f_1_2 i) (* -1 f_0_1 x) (* -1 f_0_2 (+ t_1_0_0 (* t_1_0_1 x) (* t_1_0_2 i) i))) 1)))))
(check-sat)
(get-model)